************************************************************************
file with basedata            : J12052_.BAS
initial value random generator: 973143785
************************************************************************
projects                      :  1
jobs (incl. supersource/sink ):  122
horizon                       :  599
RESOURCES
  - renewable                 :  4   R
  - nonrenewable              :  0   N
  - doubly constrained        :  0   D
************************************************************************
PROJECT INFORMATION:
pronr.  #jobs rel.date duedate tardcost  MPM-Time
    1    120      0      102       24      102
************************************************************************
PRECEDENCE RELATIONS:
jobnr.    #modes  #successors   successors
   1        1          3           2   3   4
   2        1          3           5  18  23
   3        1          3           6   8  10
   4        1          3           9  22  58
   5        1          3           7  39  69
   6        1          3          26  35  92
   7        1          2          41  66
   8        1          1          17
   9        1          3          25  44  54
  10        1          3          11  12  13
  11        1          1          16
  12        1          3          14  16  26
  13        1          3          15  27  43
  14        1          3          20  32  45
  15        1          3          47  62  64
  16        1          3          24  29  72
  17        1          3          34  48  77
  18        1          3          19  49  97
  19        1          3          20  64  88
  20        1          3          21  24  47
  21        1          2          28  87
  22        1          3          35  50  73
  23        1          3          52  86 103
  24        1          3          33  51 105
  25        1          3          30  31  48
  26        1          3          38  49  66
  27        1          3          37  45  56
  28        1          3          44  56  68
  29        1          3          46  79  99
  30        1          3          65  69  81
  31        1          3          41  90 107
  32        1          3          36  52  71
  33        1          3          44  67 109
  34        1          3          40  58  59
  35        1          3          57  78  80
  36        1          3          47  61  80
  37        1          2          42  67
  38        1          1          42
  39        1          3          45  60  84
  40        1          2          89 105
  41        1          3          55  60  70
  42        1          2          73  74
  43        1          1          75
  44        1          3          53  76  81
  45        1          1         102
  46        1          3          62  63  89
  47        1          2          75 101
  48        1          2          68  72
  49        1          3          56  79  94
  50        1          3          64  79 107
  51        1          1          84
  52        1          2          77  95
  53        1          1          82
  54        1          2          59  66
  55        1          2          61  71
  56        1          3          70  73 117
  57        1          2          67 100
  58        1          1          62
  59        1          3          65  93 101
  60        1          3          63  71  95
  61        1          2          97 112
  62        1          1          94
  63        1          3          86  91  98
  64        1          3          82  83 109
  65        1          3          88  92 109
  66        1          3          75  83  88
  67        1          1          85
  68        1          3          74  80 102
  69        1          3          72  84  94
  70        1          1          93
  71        1          3          76  87  99
  72        1          2          78  99
  73        1          1         108
  74        1          3          85  98 110
  75        1          1         114
  76        1          1         103
  77        1          3          78  81  97
  78        1          3          91 104 115
  79        1          3          82  87 120
  80        1          3          83  90 110
  81        1          3          85  92 100
  82        1          1         111
  83        1          2          86  89
  84        1          2          96 100
  85        1          3          90 107 116
  86        1          1         112
  87        1          1         108
  88        1          1         111
  89        1          2          95 101
  90        1          1          91
  91        1          2          93 106
  92        1          2          96 121
  93        1          1         111
  94        1          1         105
  95        1          3          96  98 115
  96        1          1         104
  97        1          2         102 106
  98        1          1         118
  99        1          1         118
 100        1          2         104 113
 101        1          2         103 115
 102        1          2         108 116
 103        1          1         114
 104        1          1         112
 105        1          1         106
 106        1          1         114
 107        1          1         120
 108        1          1         113
 109        1          2         110 113
 110        1          1         120
 111        1          1         119
 112        1          1         117
 113        1          1         118
 114        1          1         119
 115        1          1         116
 116        1          2         117 121
 117        1          1         119
 118        1          1         121
 119        1          1         122
 120        1          1         122
 121        1          1         122
 122        1          0        
************************************************************************
REQUESTS/DURATIONS:
jobnr. mode duration  R 1  R 2  R 3  R 4
------------------------------------------------------------------------
  1      1     0       0    0    0    0
  2      1     1       4    0    0    6
  3      1     6       7    4    0    0
  4      1     4       0    5    7    9
  5      1     5       9    5    5    1
  6      1     1       6    3    1    0
  7      1     1      10    9   10    2
  8      1     1       0    0    8    9
  9      1     8       5    3    0    0
 10      1     2       4    4    0    0
 11      1     1       5    7    4    6
 12      1     1       0    6    4    4
 13      1     1       0    0    6    7
 14      1     3       8    0    4    6
 15      1     6       0    8    5    6
 16      1     2       0    7    1    0
 17      1     4       0    9   10    6
 18      1     9       9    1    0    9
 19      1     5       0    2    0    9
 20      1     8       0    3    1    2
 21      1     3       4    6    5    0
 22      1     8       0    0    6    8
 23      1     2       6    7    5    7
 24      1     1      10    0    3    0
 25      1     1       3    0    6    6
 26      1     3       9    5    0    0
 27      1     4       7    3    8    2
 28      1    10       6    5    0    9
 29      1     5       8    7    4    9
 30      1    10       9   10    9    5
 31      1    10       1    7   10    4
 32      1     8       5    2    0    0
 33      1     2       7    9    0    0
 34      1    10       0    4    6    0
 35      1     3       8    7    6    9
 36      1     1       6    4    4    5
 37      1     5       0    2    7    9
 38      1     9       1    0    1    0
 39      1     2       0    5    6    2
 40      1     7       0    9    8    4
 41      1     6       1    2   10    2
 42      1     9       4    9    0    6
 43      1     3       5    8    9    0
 44      1     2       9    9    2   10
 45      1     4       2    0    3    7
 46      1     5       1    0    0    6
 47      1     8       1    4    0    6
 48      1     5       9    6    7    6
 49      1     1       0    1    9   10
 50      1     8       0    0    8    3
 51      1     4      10    9    5    0
 52      1     7       0    2    6    0
 53      1     8       0    8    1    0
 54      1     6       1    3    8    6
 55      1     1       0    5    0    2
 56      1     7      10    7    9    0
 57      1     5       8    5    0   10
 58      1     3      10    3    5    6
 59      1     5       0    3    3    2
 60      1     4       0    4    0    3
 61      1     3       1    7    4    0
 62      1     7       3    6    7    6
 63      1     5       5    1    3    0
 64      1     8       6    7    3    0
 65      1     4       3    3    0    2
 66      1     2       1    1    9    5
 67      1     3       2    2    3    5
 68      1     8       5    9    3    1
 69      1     6       7    4    1    0
 70      1    10       0    5    2    6
 71      1     5       3    4    7    0
 72      1     3       4    0    5    1
 73      1     6       3    4    7    3
 74      1     1       8    9    1    9
 75      1     1       0    4    5    2
 76      1     7       2    3    8    1
 77      1     1       1    0   10    8
 78      1     9       0    5    1    8
 79      1     2       5    2    8    7
 80      1     1       5    3    4    0
 81      1     7       9   10    3    9
 82      1     8       1    9    4    3
 83      1     5       8    5    6    1
 84      1     1       5    5    1    9
 85      1     9      10    0    7    0
 86      1     4       8    9    5    0
 87      1     1       1    6    0    0
 88      1     9       8    0    6    1
 89      1     7       1    3    5    6
 90      1     4       5    6    0    1
 91      1     3       6    9    8    2
 92      1     7       0    4    5    9
 93      1     1       7    0    2    0
 94      1     4       0    5    0    4
 95      1    10       1    7    8    9
 96      1     8       0    3   10    7
 97      1     5       0    0    9    6
 98      1     6       2    8    0    1
 99      1     1       3    7    2    1
100      1     9       0    1    1    6
101      1    10       2    3    0    2
102      1     2       4    0    2   10
103      1     3       9    1    0    7
104      1     6       2    0    1    1
105      1     8      10    2    0    3
106      1     4       7    2    0    8
107      1     7       8    6   10    6
108      1     2       7    0    9    9
109      1     8       4    0    0    0
110      1     3       3    0    9    0
111      1     8      10    0    6    0
112      1     9       2    0    0    7
113      1     6       7    5    8    7
114      1     7       4    3    9    4
115      1     2       0    4    8    0
116      1     7       5    9    4    0
117      1     7      10    0    0    0
118      1     6       1    0    1    6
119      1     5       6    4    0    2
120      1     6       0    1    0    8
121      1     8       6    8    5    8
122      1     0       0    0    0    0
************************************************************************
RESOURCEAVAILABILITIES:
  R 1  R 2  R 3  R 4
   19   22   23   23
************************************************************************
